Insert Title Here
1.000 # fixed lattice parameter unit
    1.770694000     1.770694000     0.000000000
    0.000000000     1.770694000     1.770694000
    1.770694000     0.000000000     1.770694000
C  
2  
Selective Dynamics # constraints enabled
Cartesian # direct lattice
   -0.000000000    -0.000000000    -0.000000000 T T T
    0.885347070     0.885347070     0.885347070 T T T
